problem_generation/data/GISP/train/er_n=60_m=1060_p=0.60_SET2_setparam=100.00_alpha=0.50_176.lp
maximize
OBJ:100x0 + 100x1 + 100x2 + 100x3 + 100x4 + 100x5 + 100x6 + 100x7 + 100x8 + 100x9 + 100x10 + 100x11 + 100x12 + 100x13 + 100x14 + 100x15 + 100x16 + 100x17 + 100x18 + 100x19 + 100x20 + 100x21 + 100x22 + 100x23 + 100x24 + 100x25 + 100x26 + 100x27 + 100x28 + 100x29 + 100x30 + 100x31 + 100x32 + 100x33 + 100x34 + 100x35 + 100x36 + 100x37 + 100x38 + 100x39 + 100x40 + 100x41 + 100x42 + 100x43 + 100x44 + 100x45 + 100x46 + 100x47 + 100x48 + 100x49 + 100x50 + 100x51 + 100x52 + 100x53 + 100x54 + 100x55 + 100x56 + 100x57 + 100x58 + 100x59 - y18_26 - y7_35 - y21_37 - y0_14 - y29_50 - y40_59 - y21_55 - y25_52 - y2_59 - y14_42 - y15_16 - y36_48 - y47_48 - y36_57 - y17_53 - y9_58 - y6_34 - y0_9 - y6_43 - y40_45 - y21_41 - y10_22 - y2_36 - y51_59 - y2_54 - y3_19 - y22_32 - y13_51 - y3_37 - y14_37 - y7_16 - y5_46 - y17_48 - y5_55 - y17_57 - y29_31 - y21_36 - y21_45 - y6_56 - y10_35 - y10_44 - y2_40 - y25_42 - y32_41 - y51_54 - y2_49 - y22_27 - y24_46 - y43_59 - y35_55 - y7_11 - y36_56 - y47_56 - y6_15 - y21_22 - y6_33 - y40_44 - y21_49 - y39_48 - y2_8 - y39_57 - y2_17 - y31_53 - y2_26 - y10_39 - y23_58 - y32_36 - y3_9 - y13_41 - y14_18 - y32_54 - y24_50 - y35_50 - y1_57 - y13_59 - y17_20 - y9_25 - y17_38 - y9_52 - y29_30 - y21_35 - y2_3 - y10_16 - y20_48 - y10_25 - y12_44 - y2_21 - y20_57 - y54_59 - y2_30 - y3_4 - y1_34 - y24_36 - y24_45 - y35_45 - y35_54 - y16_50 - y17_24 - y5_31 - y9_38 - y5_49 - y5_58 - y42_44 - y6_32 - y8_51 - y42_53 - y21_30 - y0_56 - y20_34 - y23_39 - y4_53 - y32_35 - y24_31 - y16_27 - y1_38 - y1_47 - y24_49 - y35_58 - y16_54 - y49_51 - y5_26 - y9_33 - y6_18 - y50_52 - y8_55 - y19_55 - y30_55 - y42_57 - y39_42 - y2_11 - y4_30 - y31_47 - y12_43 - y23_43 - y31_56 - y4_39 - y13_17 - y4_48 - y1_24 - y16_22 - y34_58 - y24_35 - y24_44 - y9_10 - y5_21 - y17_23 - y9_19 - y49_55 - y7_58 - y8_41 - y27_54 - y0_37 - y0_46 - y8_59 - y0_55 - y11_55 - y20_33 - y20_42 - y4_25 - y31_42 - y12_38 - y23_38 - y23_47 - y1_10 - y1_19 - y1_28 - y38_41 - y5_16 - y46_54 - y26_48 - y5_25 - y7_44 - y26_57 - y38_59 - y27_31 - y8_36 - y30_36 - y11_32 - y8_45 - y0_41 - y19_54 - y42_56 - y0_50 - y0_59 - y23_24 - y20_37 - y1_5 - y34_48 - y24_25 - y16_21 - y37_53 - y5_11 - y46_58 - y7_39 - y26_52 - y49_54 - y8_22 - y0_18 - y11_18 - y27_44 - y27_53 - y0_36 - y8_49 - y30_49 - y0_45 - y11_45 - y20_23 - y4_15 - y33_51 - y4_24 - y12_37 - y1_9 - y34_52 - y3_46 - y37_48 - y3_55 - y14_55 - y26_38 - y7_34 - y7_43 - y18_43 - y15_56 - y27_30 - y0_22 - y19_35 - y0_31 - y11_31 - y30_44 - y0_40 - y11_40 - y12_14 - y12_23 - y33_55 - y4_28 - y3_32 - y45_47 - y22_54 - y34_56 - y37_52 - y3_59 - y18_20 - y26_33 - y18_38 - y15_51 - y18_56 - y19_30 - y0_26 - y11_35 - y4_14 - y3_27 - y34_51 - y3_45 - y14_45 - y37_47 - y15_37 - y29_39 - y29_48 - y40_48 - y21_44 - y0_21 - y40_57 - y21_53 - y11_30 - y44_45 - y41_58 - y52_58 - y10_52 - y2_48 - y3_13 - y22_26 - y25_59 - y14_22 - y34_37 - y14_31 - y22_44 - y14_40 - y7_10 - y15_23 - y17_51 - y7_28 - y18_28 - y7_37 - y9_56 - y29_34 - y6_41 - y48_56 - y0_16 - y11_16 - y40_52 - y10_29 - y25_27 - y10_38 - y10_47 - y10_56 - y3_17 - y14_17 - y22_30 - y22_39 - y3_35 - y3_44 - y36_41 - y7_14 - y36_59 - y6_36 - y48_51 - y21_43 - y21_52 - y10_33 - y33_35 - y25_40 - y10_51 - y22_25 - y2_56 - y14_30 - y55_58 - y47_54 - y9_37 - y17_50 - y5_57 - y6_31 - y21_29 - y21_38 - y6_49 - y40_51 - y25_35 - y2_42 - y24_39 - y14_16 - y32_52 - y24_48 - y36_40 - y17_36 - y36_49 - y36_58 - y9_41 - y47_58 - y9_50 - y9_59 - y29_37 - y6_44 - y21_42 - y31_46 - y10_32 - y13_25 - y4_56 - y32_38 - y24_34 - y32_47 - y43_47 - y1_41 - y32_56 - y43_56 - y16_57 - y17_31 - y28_31 - y3_56 - y5_47 - y9_54 - y6_30 - y42_51 - y21_28 - y6_39 - y8_58 - y2_5 - y20_41 - y10_18 - y31_41 - y39_54 - y20_50 - y2_23 - y20_59 - y4_51 - y32_33 - y1_36 - y35_38 - y32_51 - y16_34 - y35_47 - y35_56 - y38_58 - y5_33 - y21_23 - y27_57 - y50_59 - y19_53 - y30_53 - y0_49 - y20_36 - y31_36 - y10_13 - y12_32 - y39_49 - y39_58 - y12_41 - y2_18 - y4_37 - y4_55 - y13_42 - y1_49 - y35_51 - y38_53 - y17_30 - y9_35 - y27_52 - y30_48 - y11_44 - y20_22 - y12_18 - y20_31 - y39_44 - y4_23 - y20_49 - y31_49 - y1_8 - y1_26 - y1_35 - y13_37 - y1_44 - y5_14 - y15_46 - y7_51 - y18_51 - y19_34 - y27_47 - y19_43 - y8_52 - y19_52 - y42_54 - y0_48 - y11_48 - y12_13 - y20_35 - y31_35 - y20_44 - y31_44 - y23_40 - y1_3 - y4_36 - y23_49 - y1_12 - y13_14 - y1_21 - y4_54 - y37_51 - y26_41 - y5_18 - y26_50 - y49_52 - y7_46 - y26_59 - y7_55 - y19_29 - y19_38 - y30_38 - y27_51 - y0_43 - y11_43 - y8_56 - y19_56 - y0_52 - y23_26 - y44_58 - y23_35 - y1_16 - y34_50 - y14_53 - y26_27 - y15_36 - y7_32 - y18_32 - y7_41 - y15_54 - y38_56 - y18_50 - y8_15 - y0_11 - y18_59 - y19_24 - y19_33 - y0_38 - y41_48 - y12_21 - y4_17 - y33_53 - y44_53 - y1_2 - y4_35 - y22_34 - y34_36 - y1_20 - y3_39 - y14_39 - y37_41 - y18_27 - y26_40 - y18_36 - y7_45 - y8_28 - y0_24 - y21_56 - y0_42 - y11_42 - y33_48 - y33_57 - y25_53 - y45_49 - y14_43 - y37_45 - y22_56 - y15_26 - y15_44 - y0_1 - y7_49 - y8_14 - y18_49 - y48_59 - y6_53 - y11_19 - y0_28 - y10_41 - y25_39 - y44_52 - y2_46 - y25_48 - y2_55 - y25_57 - y3_38 - y37_49 - y14_56
 Subject to
C1: x0+x1-y0_1 <=1 
C2: x0+x3 <=1 
C3: x0+x4 <=1 
C4: x0+x8 <=1 
C5: x0+x9-y0_9 <=1 
C6: x0+x11-y0_11 <=1 
C7: x0+x13 <=1 
C8: x0+x14-y0_14 <=1 
C9: x0+x16-y0_16 <=1 
C10: x0+x18-y0_18 <=1 
C11: x0+x20 <=1 
C12: x0+x21-y0_21 <=1 
C13: x0+x22-y0_22 <=1 
C14: x0+x24-y0_24 <=1 
C15: x0+x26-y0_26 <=1 
C16: x0+x27 <=1 
C17: x0+x28-y0_28 <=1 
C18: x0+x29 <=1 
C19: x0+x30 <=1 
C20: x0+x31-y0_31 <=1 
C21: x0+x32 <=1 
C22: x0+x33 <=1 
C23: x0+x34 <=1 
C24: x0+x36-y0_36 <=1 
C25: x0+x37-y0_37 <=1 
C26: x0+x38-y0_38 <=1 
C27: x0+x39 <=1 
C28: x0+x40-y0_40 <=1 
C29: x0+x41-y0_41 <=1 
C30: x0+x42-y0_42 <=1 
C31: x0+x43-y0_43 <=1 
C32: x0+x45-y0_45 <=1 
C33: x0+x46-y0_46 <=1 
C34: x0+x47 <=1 
C35: x0+x48-y0_48 <=1 
C36: x0+x49-y0_49 <=1 
C37: x0+x50-y0_50 <=1 
C38: x0+x51 <=1 
C39: x0+x52-y0_52 <=1 
C40: x0+x53 <=1 
C41: x0+x55-y0_55 <=1 
C42: x0+x56-y0_56 <=1 
C43: x0+x59-y0_59 <=1 
C44: x1+x2-y1_2 <=1 
C45: x1+x3-y1_3 <=1 
C46: x1+x4 <=1 
C47: x1+x5-y1_5 <=1 
C48: x1+x6 <=1 
C49: x1+x7 <=1 
C50: x1+x8-y1_8 <=1 
C51: x1+x9-y1_9 <=1 
C52: x1+x10-y1_10 <=1 
C53: x1+x11 <=1 
C54: x1+x12-y1_12 <=1 
C55: x1+x15 <=1 
C56: x1+x16-y1_16 <=1 
C57: x1+x17 <=1 
C58: x1+x19-y1_19 <=1 
C59: x1+x20-y1_20 <=1 
C60: x1+x21-y1_21 <=1 
C61: x1+x24-y1_24 <=1 
C62: x1+x26-y1_26 <=1 
C63: x1+x27 <=1 
C64: x1+x28-y1_28 <=1 
C65: x1+x29 <=1 
C66: x1+x30 <=1 
C67: x1+x32 <=1 
C68: x1+x34-y1_34 <=1 
C69: x1+x35-y1_35 <=1 
C70: x1+x36-y1_36 <=1 
C71: x1+x37 <=1 
C72: x1+x38-y1_38 <=1 
C73: x1+x40 <=1 
C74: x1+x41-y1_41 <=1 
C75: x1+x42 <=1 
C76: x1+x43 <=1 
C77: x1+x44-y1_44 <=1 
C78: x1+x47-y1_47 <=1 
C79: x1+x49-y1_49 <=1 
C80: x1+x51 <=1 
C81: x1+x54 <=1 
C82: x1+x57-y1_57 <=1 
C83: x1+x59 <=1 
C84: x2+x3-y2_3 <=1 
C85: x2+x4 <=1 
C86: x2+x5-y2_5 <=1 
C87: x2+x6 <=1 
C88: x2+x8-y2_8 <=1 
C89: x2+x9 <=1 
C90: x2+x11-y2_11 <=1 
C91: x2+x12 <=1 
C92: x2+x13 <=1 
C93: x2+x15 <=1 
C94: x2+x17-y2_17 <=1 
C95: x2+x18-y2_18 <=1 
C96: x2+x21-y2_21 <=1 
C97: x2+x22 <=1 
C98: x2+x23-y2_23 <=1 
C99: x2+x25 <=1 
C100: x2+x26-y2_26 <=1 
C101: x2+x30-y2_30 <=1 
C102: x2+x32 <=1 
C103: x2+x33 <=1 
C104: x2+x34 <=1 
C105: x2+x35 <=1 
C106: x2+x36-y2_36 <=1 
C107: x2+x37 <=1 
C108: x2+x40-y2_40 <=1 
C109: x2+x41 <=1 
C110: x2+x42-y2_42 <=1 
C111: x2+x44 <=1 
C112: x2+x45 <=1 
C113: x2+x46-y2_46 <=1 
C114: x2+x47 <=1 
C115: x2+x48-y2_48 <=1 
C116: x2+x49-y2_49 <=1 
C117: x2+x52 <=1 
C118: x2+x54-y2_54 <=1 
C119: x2+x55-y2_55 <=1 
C120: x2+x56-y2_56 <=1 
C121: x2+x58 <=1 
C122: x2+x59-y2_59 <=1 
C123: x3+x4-y3_4 <=1 
C124: x3+x5 <=1 
C125: x3+x8 <=1 
C126: x3+x9-y3_9 <=1 
C127: x3+x11 <=1 
C128: x3+x12 <=1 
C129: x3+x13-y3_13 <=1 
C130: x3+x16 <=1 
C131: x3+x17-y3_17 <=1 
C132: x3+x18 <=1 
C133: x3+x19-y3_19 <=1 
C134: x3+x22 <=1 
C135: x3+x24 <=1 
C136: x3+x26 <=1 
C137: x3+x27-y3_27 <=1 
C138: x3+x29 <=1 
C139: x3+x32-y3_32 <=1 
C140: x3+x35-y3_35 <=1 
C141: x3+x37-y3_37 <=1 
C142: x3+x38-y3_38 <=1 
C143: x3+x39-y3_39 <=1 
C144: x3+x42 <=1 
C145: x3+x43 <=1 
C146: x3+x44-y3_44 <=1 
C147: x3+x45-y3_45 <=1 
C148: x3+x46-y3_46 <=1 
C149: x3+x47 <=1 
C150: x3+x48 <=1 
C151: x3+x50 <=1 
C152: x3+x53 <=1 
C153: x3+x54 <=1 
C154: x3+x55-y3_55 <=1 
C155: x3+x56-y3_56 <=1 
C156: x3+x59-y3_59 <=1 
C157: x4+x5 <=1 
C158: x4+x8 <=1 
C159: x4+x9 <=1 
C160: x4+x10 <=1 
C161: x4+x12 <=1 
C162: x4+x13 <=1 
C163: x4+x14-y4_14 <=1 
C164: x4+x15-y4_15 <=1 
C165: x4+x17-y4_17 <=1 
C166: x4+x21 <=1 
C167: x4+x22 <=1 
C168: x4+x23-y4_23 <=1 
C169: x4+x24-y4_24 <=1 
C170: x4+x25-y4_25 <=1 
C171: x4+x28-y4_28 <=1 
C172: x4+x30-y4_30 <=1 
C173: x4+x31 <=1 
C174: x4+x32 <=1 
C175: x4+x35-y4_35 <=1 
C176: x4+x36-y4_36 <=1 
C177: x4+x37-y4_37 <=1 
C178: x4+x38 <=1 
C179: x4+x39-y4_39 <=1 
C180: x4+x46 <=1 
C181: x4+x47 <=1 
C182: x4+x48-y4_48 <=1 
C183: x4+x49 <=1 
C184: x4+x50 <=1 
C185: x4+x51-y4_51 <=1 
C186: x4+x53-y4_53 <=1 
C187: x4+x54-y4_54 <=1 
C188: x4+x55-y4_55 <=1 
C189: x4+x56-y4_56 <=1 
C190: x5+x7 <=1 
C191: x5+x11-y5_11 <=1 
C192: x5+x12 <=1 
C193: x5+x14-y5_14 <=1 
C194: x5+x16-y5_16 <=1 
C195: x5+x18-y5_18 <=1 
C196: x5+x20 <=1 
C197: x5+x21-y5_21 <=1 
C198: x5+x23 <=1 
C199: x5+x25-y5_25 <=1 
C200: x5+x26-y5_26 <=1 
C201: x5+x29 <=1 
C202: x5+x31-y5_31 <=1 
C203: x5+x32 <=1 
C204: x5+x33-y5_33 <=1 
C205: x5+x40 <=1 
C206: x5+x42 <=1 
C207: x5+x43 <=1 
C208: x5+x46-y5_46 <=1 
C209: x5+x47-y5_47 <=1 
C210: x5+x49-y5_49 <=1 
C211: x5+x50 <=1 
C212: x5+x55-y5_55 <=1 
C213: x5+x56 <=1 
C214: x5+x57-y5_57 <=1 
C215: x5+x58-y5_58 <=1 
C216: x5+x59 <=1 
C217: x6+x12 <=1 
C218: x6+x13 <=1 
C219: x6+x14 <=1 
C220: x6+x15-y6_15 <=1 
C221: x6+x17 <=1 
C222: x6+x18-y6_18 <=1 
C223: x6+x19 <=1 
C224: x6+x22 <=1 
C225: x6+x23 <=1 
C226: x6+x24 <=1 
C227: x6+x26 <=1 
C228: x6+x28 <=1 
C229: x6+x29 <=1 
C230: x6+x30-y6_30 <=1 
C231: x6+x31-y6_31 <=1 
C232: x6+x32-y6_32 <=1 
C233: x6+x33-y6_33 <=1 
C234: x6+x34-y6_34 <=1 
C235: x6+x36-y6_36 <=1 
C236: x6+x37 <=1 
C237: x6+x39-y6_39 <=1 
C238: x6+x41-y6_41 <=1 
C239: x6+x43-y6_43 <=1 
C240: x6+x44-y6_44 <=1 
C241: x6+x46 <=1 
C242: x6+x47 <=1 
C243: x6+x48 <=1 
C244: x6+x49-y6_49 <=1 
C245: x6+x50 <=1 
C246: x6+x53-y6_53 <=1 
C247: x6+x56-y6_56 <=1 
C248: x6+x57 <=1 
C249: x6+x58 <=1 
C250: x6+x59 <=1 
C251: x7+x8 <=1 
C252: x7+x10-y7_10 <=1 
C253: x7+x11-y7_11 <=1 
C254: x7+x14-y7_14 <=1 
C255: x7+x15 <=1 
C256: x7+x16-y7_16 <=1 
C257: x7+x18 <=1 
C258: x7+x21 <=1 
C259: x7+x24 <=1 
C260: x7+x25 <=1 
C261: x7+x27 <=1 
C262: x7+x28-y7_28 <=1 
C263: x7+x29 <=1 
C264: x7+x30 <=1 
C265: x7+x32-y7_32 <=1 
C266: x7+x34-y7_34 <=1 
C267: x7+x35-y7_35 <=1 
C268: x7+x37-y7_37 <=1 
C269: x7+x38 <=1 
C270: x7+x39-y7_39 <=1 
C271: x7+x40 <=1 
C272: x7+x41-y7_41 <=1 
C273: x7+x43-y7_43 <=1 
C274: x7+x44-y7_44 <=1 
C275: x7+x45-y7_45 <=1 
C276: x7+x46-y7_46 <=1 
C277: x7+x47 <=1 
C278: x7+x49-y7_49 <=1 
C279: x7+x51-y7_51 <=1 
C280: x7+x55-y7_55 <=1 
C281: x7+x56 <=1 
C282: x7+x58-y7_58 <=1 
C283: x7+x59 <=1 
C284: x8+x9 <=1 
C285: x8+x10 <=1 
C286: x8+x11 <=1 
C287: x8+x13 <=1 
C288: x8+x14-y8_14 <=1 
C289: x8+x15-y8_15 <=1 
C290: x8+x16 <=1 
C291: x8+x20 <=1 
C292: x8+x21 <=1 
C293: x8+x22-y8_22 <=1 
C294: x8+x23 <=1 
C295: x8+x24 <=1 
C296: x8+x26 <=1 
C297: x8+x27 <=1 
C298: x8+x28-y8_28 <=1 
C299: x8+x29 <=1 
C300: x8+x34 <=1 
C301: x8+x35 <=1 
C302: x8+x36-y8_36 <=1 
C303: x8+x39 <=1 
C304: x8+x41-y8_41 <=1 
C305: x8+x45-y8_45 <=1 
C306: x8+x46 <=1 
C307: x8+x49-y8_49 <=1 
C308: x8+x51-y8_51 <=1 
C309: x8+x52-y8_52 <=1 
C310: x8+x53 <=1 
C311: x8+x54 <=1 
C312: x8+x55-y8_55 <=1 
C313: x8+x56-y8_56 <=1 
C314: x8+x58-y8_58 <=1 
C315: x8+x59-y8_59 <=1 
C316: x9+x10-y9_10 <=1 
C317: x9+x11 <=1 
C318: x9+x12 <=1 
C319: x9+x15 <=1 
C320: x9+x16 <=1 
C321: x9+x19-y9_19 <=1 
C322: x9+x20 <=1 
C323: x9+x21 <=1 
C324: x9+x24 <=1 
C325: x9+x25-y9_25 <=1 
C326: x9+x26 <=1 
C327: x9+x29 <=1 
C328: x9+x30 <=1 
C329: x9+x31 <=1 
C330: x9+x32 <=1 
C331: x9+x33-y9_33 <=1 
C332: x9+x34 <=1 
C333: x9+x35-y9_35 <=1 
C334: x9+x37-y9_37 <=1 
C335: x9+x38-y9_38 <=1 
C336: x9+x41-y9_41 <=1 
C337: x9+x43 <=1 
C338: x9+x46 <=1 
C339: x9+x47 <=1 
C340: x9+x49 <=1 
C341: x9+x50-y9_50 <=1 
C342: x9+x52-y9_52 <=1 
C343: x9+x54-y9_54 <=1 
C344: x9+x55 <=1 
C345: x9+x56-y9_56 <=1 
C346: x9+x57 <=1 
C347: x9+x58-y9_58 <=1 
C348: x9+x59-y9_59 <=1 
C349: x10+x11 <=1 
C350: x10+x12 <=1 
C351: x10+x13-y10_13 <=1 
C352: x10+x16-y10_16 <=1 
C353: x10+x18-y10_18 <=1 
C354: x10+x22-y10_22 <=1 
C355: x10+x23 <=1 
C356: x10+x25-y10_25 <=1 
C357: x10+x26 <=1 
C358: x10+x28 <=1 
C359: x10+x29-y10_29 <=1 
C360: x10+x31 <=1 
C361: x10+x32-y10_32 <=1 
C362: x10+x33-y10_33 <=1 
C363: x10+x34 <=1 
C364: x10+x35-y10_35 <=1 
C365: x10+x38-y10_38 <=1 
C366: x10+x39-y10_39 <=1 
C367: x10+x40 <=1 
C368: x10+x41-y10_41 <=1 
C369: x10+x42 <=1 
C370: x10+x44-y10_44 <=1 
C371: x10+x47-y10_47 <=1 
C372: x10+x48 <=1 
C373: x10+x51-y10_51 <=1 
C374: x10+x52-y10_52 <=1 
C375: x10+x56-y10_56 <=1 
C376: x10+x58 <=1 
C377: x11+x12 <=1 
C378: x11+x13 <=1 
C379: x11+x14 <=1 
C380: x11+x16-y11_16 <=1 
C381: x11+x18-y11_18 <=1 
C382: x11+x19-y11_19 <=1 
C383: x11+x22 <=1 
C384: x11+x23 <=1 
C385: x11+x24 <=1 
C386: x11+x25 <=1 
C387: x11+x26 <=1 
C388: x11+x29 <=1 
C389: x11+x30-y11_30 <=1 
C390: x11+x31-y11_31 <=1 
C391: x11+x32-y11_32 <=1 
C392: x11+x33 <=1 
C393: x11+x34 <=1 
C394: x11+x35-y11_35 <=1 
C395: x11+x37 <=1 
C396: x11+x38 <=1 
C397: x11+x40-y11_40 <=1 
C398: x11+x42-y11_42 <=1 
C399: x11+x43-y11_43 <=1 
C400: x11+x44-y11_44 <=1 
C401: x11+x45-y11_45 <=1 
C402: x11+x46 <=1 
C403: x11+x47 <=1 
C404: x11+x48-y11_48 <=1 
C405: x11+x50 <=1 
C406: x11+x55-y11_55 <=1 
C407: x11+x57 <=1 
C408: x12+x13-y12_13 <=1 
C409: x12+x14-y12_14 <=1 
C410: x12+x15 <=1 
C411: x12+x16 <=1 
C412: x12+x18-y12_18 <=1 
C413: x12+x19 <=1 
C414: x12+x21-y12_21 <=1 
C415: x12+x22 <=1 
C416: x12+x23-y12_23 <=1 
C417: x12+x26 <=1 
C418: x12+x27 <=1 
C419: x12+x32-y12_32 <=1 
C420: x12+x33 <=1 
C421: x12+x34 <=1 
C422: x12+x36 <=1 
C423: x12+x37-y12_37 <=1 
C424: x12+x38-y12_38 <=1 
C425: x12+x39 <=1 
C426: x12+x41-y12_41 <=1 
C427: x12+x43-y12_43 <=1 
C428: x12+x44-y12_44 <=1 
C429: x12+x46 <=1 
C430: x12+x47 <=1 
C431: x12+x51 <=1 
C432: x12+x53 <=1 
C433: x12+x55 <=1 
C434: x12+x56 <=1 
C435: x12+x57 <=1 
C436: x12+x59 <=1 
C437: x13+x14-y13_14 <=1 
C438: x13+x15 <=1 
C439: x13+x16 <=1 
C440: x13+x17-y13_17 <=1 
C441: x13+x20 <=1 
C442: x13+x23 <=1 
C443: x13+x25-y13_25 <=1 
C444: x13+x27 <=1 
C445: x13+x30 <=1 
C446: x13+x31 <=1 
C447: x13+x32 <=1 
C448: x13+x35 <=1 
C449: x13+x36 <=1 
C450: x13+x37-y13_37 <=1 
C451: x13+x38 <=1 
C452: x13+x39 <=1 
C453: x13+x40 <=1 
C454: x13+x41-y13_41 <=1 
C455: x13+x42-y13_42 <=1 
C456: x13+x44 <=1 
C457: x13+x45 <=1 
C458: x13+x47 <=1 
C459: x13+x49 <=1 
C460: x13+x51-y13_51 <=1 
C461: x13+x54 <=1 
C462: x13+x58 <=1 
C463: x13+x59-y13_59 <=1 
C464: x14+x16-y14_16 <=1 
C465: x14+x17-y14_17 <=1 
C466: x14+x18-y14_18 <=1 
C467: x14+x20 <=1 
C468: x14+x21 <=1 
C469: x14+x22-y14_22 <=1 
C470: x14+x25 <=1 
C471: x14+x27 <=1 
C472: x14+x30-y14_30 <=1 
C473: x14+x31-y14_31 <=1 
C474: x14+x33 <=1 
C475: x14+x35 <=1 
C476: x14+x36 <=1 
C477: x14+x37-y14_37 <=1 
C478: x14+x39-y14_39 <=1 
C479: x14+x40-y14_40 <=1 
C480: x14+x41 <=1 
C481: x14+x42-y14_42 <=1 
C482: x14+x43-y14_43 <=1 
C483: x14+x44 <=1 
C484: x14+x45-y14_45 <=1 
C485: x14+x46 <=1 
C486: x14+x50 <=1 
C487: x14+x52 <=1 
C488: x14+x53-y14_53 <=1 
C489: x14+x54 <=1 
C490: x14+x55-y14_55 <=1 
C491: x14+x56-y14_56 <=1 
C492: x14+x57 <=1 
C493: x14+x59 <=1 
C494: x15+x16-y15_16 <=1 
C495: x15+x20 <=1 
C496: x15+x21 <=1 
C497: x15+x23-y15_23 <=1 
C498: x15+x24 <=1 
C499: x15+x26-y15_26 <=1 
C500: x15+x27 <=1 
C501: x15+x28 <=1 
C502: x15+x30 <=1 
C503: x15+x31 <=1 
C504: x15+x32 <=1 
C505: x15+x33 <=1 
C506: x15+x35 <=1 
C507: x15+x36-y15_36 <=1 
C508: x15+x37-y15_37 <=1 
C509: x15+x38 <=1 
C510: x15+x39 <=1 
C511: x15+x40 <=1 
C512: x15+x43 <=1 
C513: x15+x44-y15_44 <=1 
C514: x15+x46-y15_46 <=1 
C515: x15+x51-y15_51 <=1 
C516: x15+x54-y15_54 <=1 
C517: x15+x55 <=1 
C518: x15+x56-y15_56 <=1 
C519: x15+x59 <=1 
C520: x16+x21-y16_21 <=1 
C521: x16+x22-y16_22 <=1 
C522: x16+x23 <=1 
C523: x16+x24 <=1 
C524: x16+x26 <=1 
C525: x16+x27-y16_27 <=1 
C526: x16+x30 <=1 
C527: x16+x33 <=1 
C528: x16+x34-y16_34 <=1 
C529: x16+x35 <=1 
C530: x16+x37 <=1 
C531: x16+x39 <=1 
C532: x16+x41 <=1 
C533: x16+x45 <=1 
C534: x16+x46 <=1 
C535: x16+x50-y16_50 <=1 
C536: x16+x53 <=1 
C537: x16+x54-y16_54 <=1 
C538: x16+x57-y16_57 <=1 
C539: x17+x20-y17_20 <=1 
C540: x17+x23-y17_23 <=1 
C541: x17+x24-y17_24 <=1 
C542: x17+x26 <=1 
C543: x17+x30-y17_30 <=1 
C544: x17+x31-y17_31 <=1 
C545: x17+x33 <=1 
C546: x17+x36-y17_36 <=1 
C547: x17+x38-y17_38 <=1 
C548: x17+x39 <=1 
C549: x17+x48-y17_48 <=1 
C550: x17+x50-y17_50 <=1 
C551: x17+x51-y17_51 <=1 
C552: x17+x53-y17_53 <=1 
C553: x17+x54 <=1 
C554: x17+x55 <=1 
C555: x17+x57-y17_57 <=1 
C556: x17+x58 <=1 
C557: x17+x59 <=1 
C558: x18+x20-y18_20 <=1 
C559: x18+x21 <=1 
C560: x18+x22 <=1 
C561: x18+x25 <=1 
C562: x18+x26-y18_26 <=1 
C563: x18+x27-y18_27 <=1 
C564: x18+x28-y18_28 <=1 
C565: x18+x29 <=1 
C566: x18+x30 <=1 
C567: x18+x32-y18_32 <=1 
C568: x18+x33 <=1 
C569: x18+x34 <=1 
C570: x18+x35 <=1 
C571: x18+x36-y18_36 <=1 
C572: x18+x38-y18_38 <=1 
C573: x18+x40 <=1 
C574: x18+x43-y18_43 <=1 
C575: x18+x49-y18_49 <=1 
C576: x18+x50-y18_50 <=1 
C577: x18+x51-y18_51 <=1 
C578: x18+x53 <=1 
C579: x18+x55 <=1 
C580: x18+x56-y18_56 <=1 
C581: x18+x58 <=1 
C582: x18+x59-y18_59 <=1 
C583: x19+x21 <=1 
C584: x19+x23 <=1 
C585: x19+x24-y19_24 <=1 
C586: x19+x25 <=1 
C587: x19+x29-y19_29 <=1 
C588: x19+x30-y19_30 <=1 
C589: x19+x31 <=1 
C590: x19+x33-y19_33 <=1 
C591: x19+x34-y19_34 <=1 
C592: x19+x35-y19_35 <=1 
C593: x19+x38-y19_38 <=1 
C594: x19+x39 <=1 
C595: x19+x40 <=1 
C596: x19+x43-y19_43 <=1 
C597: x19+x46 <=1 
C598: x19+x49 <=1 
C599: x19+x51 <=1 
C600: x19+x52-y19_52 <=1 
C601: x19+x53-y19_53 <=1 
C602: x19+x54-y19_54 <=1 
C603: x19+x55-y19_55 <=1 
C604: x19+x56-y19_56 <=1 
C605: x19+x57 <=1 
C606: x20+x22-y20_22 <=1 
C607: x20+x23-y20_23 <=1 
C608: x20+x26 <=1 
C609: x20+x27 <=1 
C610: x20+x28 <=1 
C611: x20+x30 <=1 
C612: x20+x31-y20_31 <=1 
C613: x20+x33-y20_33 <=1 
C614: x20+x34-y20_34 <=1 
C615: x20+x35-y20_35 <=1 
C616: x20+x36-y20_36 <=1 
C617: x20+x37-y20_37 <=1 
C618: x20+x39 <=1 
C619: x20+x41-y20_41 <=1 
C620: x20+x42-y20_42 <=1 
C621: x20+x43 <=1 
C622: x20+x44-y20_44 <=1 
C623: x20+x45 <=1 
C624: x20+x48-y20_48 <=1 
C625: x20+x49-y20_49 <=1 
C626: x20+x50-y20_50 <=1 
C627: x20+x51 <=1 
C628: x20+x57-y20_57 <=1 
C629: x20+x58 <=1 
C630: x20+x59-y20_59 <=1 
C631: x21+x22-y21_22 <=1 
C632: x21+x23-y21_23 <=1 
C633: x21+x24 <=1 
C634: x21+x25 <=1 
C635: x21+x26 <=1 
C636: x21+x27 <=1 
C637: x21+x28-y21_28 <=1 
C638: x21+x29-y21_29 <=1 
C639: x21+x30-y21_30 <=1 
C640: x21+x31 <=1 
C641: x21+x33 <=1 
C642: x21+x34 <=1 
C643: x21+x35-y21_35 <=1 
C644: x21+x36-y21_36 <=1 
C645: x21+x37-y21_37 <=1 
C646: x21+x38-y21_38 <=1 
C647: x21+x40 <=1 
C648: x21+x41-y21_41 <=1 
C649: x21+x42-y21_42 <=1 
C650: x21+x43-y21_43 <=1 
C651: x21+x44-y21_44 <=1 
C652: x21+x45-y21_45 <=1 
C653: x21+x46 <=1 
C654: x21+x47 <=1 
C655: x21+x48 <=1 
C656: x21+x49-y21_49 <=1 
C657: x21+x51 <=1 
C658: x21+x52-y21_52 <=1 
C659: x21+x53-y21_53 <=1 
C660: x21+x54 <=1 
C661: x21+x55-y21_55 <=1 
C662: x21+x56-y21_56 <=1 
C663: x22+x25-y22_25 <=1 
C664: x22+x26-y22_26 <=1 
C665: x22+x27-y22_27 <=1 
C666: x22+x30-y22_30 <=1 
C667: x22+x32-y22_32 <=1 
C668: x22+x34-y22_34 <=1 
C669: x22+x38 <=1 
C670: x22+x39-y22_39 <=1 
C671: x22+x43 <=1 
C672: x22+x44-y22_44 <=1 
C673: x22+x46 <=1 
C674: x22+x47 <=1 
C675: x22+x50 <=1 
C676: x22+x51 <=1 
C677: x22+x54-y22_54 <=1 
C678: x22+x56-y22_56 <=1 
C679: x23+x24-y23_24 <=1 
C680: x23+x25 <=1 
C681: x23+x26-y23_26 <=1 
C682: x23+x35-y23_35 <=1 
C683: x23+x38-y23_38 <=1 
C684: x23+x39-y23_39 <=1 
C685: x23+x40-y23_40 <=1 
C686: x23+x41 <=1 
C687: x23+x42 <=1 
C688: x23+x43-y23_43 <=1 
C689: x23+x45 <=1 
C690: x23+x47-y23_47 <=1 
C691: x23+x49-y23_49 <=1 
C692: x23+x50 <=1 
C693: x23+x53 <=1 
C694: x23+x57 <=1 
C695: x23+x58-y23_58 <=1 
C696: x24+x25-y24_25 <=1 
C697: x24+x27 <=1 
C698: x24+x31-y24_31 <=1 
C699: x24+x34-y24_34 <=1 
C700: x24+x35-y24_35 <=1 
C701: x24+x36-y24_36 <=1 
C702: x24+x37 <=1 
C703: x24+x38 <=1 
C704: x24+x39-y24_39 <=1 
C705: x24+x40 <=1 
C706: x24+x44-y24_44 <=1 
C707: x24+x45-y24_45 <=1 
C708: x24+x46-y24_46 <=1 
C709: x24+x47 <=1 
C710: x24+x48-y24_48 <=1 
C711: x24+x49-y24_49 <=1 
C712: x24+x50-y24_50 <=1 
C713: x24+x51 <=1 
C714: x24+x52 <=1 
C715: x24+x54 <=1 
C716: x24+x56 <=1 
C717: x24+x59 <=1 
C718: x25+x26 <=1 
C719: x25+x27-y25_27 <=1 
C720: x25+x29 <=1 
C721: x25+x30 <=1 
C722: x25+x32 <=1 
C723: x25+x34 <=1 
C724: x25+x35-y25_35 <=1 
C725: x25+x37 <=1 
C726: x25+x38 <=1 
C727: x25+x39-y25_39 <=1 
C728: x25+x40-y25_40 <=1 
C729: x25+x42-y25_42 <=1 
C730: x25+x43 <=1 
C731: x25+x46 <=1 
C732: x25+x48-y25_48 <=1 
C733: x25+x49 <=1 
C734: x25+x52-y25_52 <=1 
C735: x25+x53-y25_53 <=1 
C736: x25+x55 <=1 
C737: x25+x57-y25_57 <=1 
C738: x25+x58 <=1 
C739: x25+x59-y25_59 <=1 
C740: x26+x27-y26_27 <=1 
C741: x26+x30 <=1 
C742: x26+x33-y26_33 <=1 
C743: x26+x38-y26_38 <=1 
C744: x26+x40-y26_40 <=1 
C745: x26+x41-y26_41 <=1 
C746: x26+x42 <=1 
C747: x26+x44 <=1 
C748: x26+x45 <=1 
C749: x26+x48-y26_48 <=1 
C750: x26+x50-y26_50 <=1 
C751: x26+x51 <=1 
C752: x26+x52-y26_52 <=1 
C753: x26+x53 <=1 
C754: x26+x54 <=1 
C755: x26+x56 <=1 
C756: x26+x57-y26_57 <=1 
C757: x26+x59-y26_59 <=1 
C758: x27+x29 <=1 
C759: x27+x30-y27_30 <=1 
C760: x27+x31-y27_31 <=1 
C761: x27+x32 <=1 
C762: x27+x35 <=1 
C763: x27+x36 <=1 
C764: x27+x39 <=1 
C765: x27+x42 <=1 
C766: x27+x44-y27_44 <=1 
C767: x27+x47-y27_47 <=1 
C768: x27+x48 <=1 
C769: x27+x49 <=1 
C770: x27+x50 <=1 
C771: x27+x51-y27_51 <=1 
C772: x27+x52-y27_52 <=1 
C773: x27+x53-y27_53 <=1 
C774: x27+x54-y27_54 <=1 
C775: x27+x55 <=1 
C776: x27+x56 <=1 
C777: x27+x57-y27_57 <=1 
C778: x28+x30 <=1 
C779: x28+x31-y28_31 <=1 
C780: x28+x33 <=1 
C781: x28+x37 <=1 
C782: x28+x39 <=1 
C783: x28+x42 <=1 
C784: x28+x45 <=1 
C785: x28+x47 <=1 
C786: x28+x50 <=1 
C787: x28+x51 <=1 
C788: x28+x54 <=1 
C789: x28+x55 <=1 
C790: x28+x57 <=1 
C791: x29+x30-y29_30 <=1 
C792: x29+x31-y29_31 <=1 
C793: x29+x32 <=1 
C794: x29+x34-y29_34 <=1 
C795: x29+x36 <=1 
C796: x29+x37-y29_37 <=1 
C797: x29+x39-y29_39 <=1 
C798: x29+x42 <=1 
C799: x29+x45 <=1 
C800: x29+x47 <=1 
C801: x29+x48-y29_48 <=1 
C802: x29+x49 <=1 
C803: x29+x50-y29_50 <=1 
C804: x29+x52 <=1 
C805: x29+x54 <=1 
C806: x29+x57 <=1 
C807: x29+x58 <=1 
C808: x30+x31 <=1 
C809: x30+x36-y30_36 <=1 
C810: x30+x38-y30_38 <=1 
C811: x30+x39 <=1 
C812: x30+x40 <=1 
C813: x30+x42 <=1 
C814: x30+x44-y30_44 <=1 
C815: x30+x46 <=1 
C816: x30+x48-y30_48 <=1 
C817: x30+x49-y30_49 <=1 
C818: x30+x51 <=1 
C819: x30+x53-y30_53 <=1 
C820: x30+x54 <=1 
C821: x30+x55-y30_55 <=1 
C822: x30+x58 <=1 
C823: x31+x35-y31_35 <=1 
C824: x31+x36-y31_36 <=1 
C825: x31+x38 <=1 
C826: x31+x39 <=1 
C827: x31+x40 <=1 
C828: x31+x41-y31_41 <=1 
C829: x31+x42-y31_42 <=1 
C830: x31+x44-y31_44 <=1 
C831: x31+x46-y31_46 <=1 
C832: x31+x47-y31_47 <=1 
C833: x31+x49-y31_49 <=1 
C834: x31+x50 <=1 
C835: x31+x53-y31_53 <=1 
C836: x31+x54 <=1 
C837: x31+x56-y31_56 <=1 
C838: x31+x57 <=1 
C839: x32+x33-y32_33 <=1 
C840: x32+x34 <=1 
C841: x32+x35-y32_35 <=1 
C842: x32+x36-y32_36 <=1 
C843: x32+x38-y32_38 <=1 
C844: x32+x39 <=1 
C845: x32+x41-y32_41 <=1 
C846: x32+x42 <=1 
C847: x32+x45 <=1 
C848: x32+x46 <=1 
C849: x32+x47-y32_47 <=1 
C850: x32+x48 <=1 
C851: x32+x51-y32_51 <=1 
C852: x32+x52-y32_52 <=1 
C853: x32+x54-y32_54 <=1 
C854: x32+x55 <=1 
C855: x32+x56-y32_56 <=1 
C856: x32+x59 <=1 
C857: x33+x35-y33_35 <=1 
C858: x33+x38 <=1 
C859: x33+x44 <=1 
C860: x33+x48-y33_48 <=1 
C861: x33+x49 <=1 
C862: x33+x51-y33_51 <=1 
C863: x33+x53-y33_53 <=1 
C864: x33+x55-y33_55 <=1 
C865: x33+x56 <=1 
C866: x33+x57-y33_57 <=1 
C867: x33+x58 <=1 
C868: x34+x36-y34_36 <=1 
C869: x34+x37-y34_37 <=1 
C870: x34+x39 <=1 
C871: x34+x41 <=1 
C872: x34+x47 <=1 
C873: x34+x48-y34_48 <=1 
C874: x34+x49 <=1 
C875: x34+x50-y34_50 <=1 
C876: x34+x51-y34_51 <=1 
C877: x34+x52-y34_52 <=1 
C878: x34+x54 <=1 
C879: x34+x56-y34_56 <=1 
C880: x34+x58-y34_58 <=1 
C881: x34+x59 <=1 
C882: x35+x36 <=1 
C883: x35+x38-y35_38 <=1 
C884: x35+x42 <=1 
C885: x35+x45-y35_45 <=1 
C886: x35+x47-y35_47 <=1 
C887: x35+x50-y35_50 <=1 
C888: x35+x51-y35_51 <=1 
C889: x35+x53 <=1 
C890: x35+x54-y35_54 <=1 
C891: x35+x55-y35_55 <=1 
C892: x35+x56-y35_56 <=1 
C893: x35+x58-y35_58 <=1 
C894: x35+x59 <=1 
C895: x36+x37 <=1 
C896: x36+x40-y36_40 <=1 
C897: x36+x41-y36_41 <=1 
C898: x36+x44 <=1 
C899: x36+x46 <=1 
C900: x36+x47 <=1 
C901: x36+x48-y36_48 <=1 
C902: x36+x49-y36_49 <=1 
C903: x36+x51 <=1 
C904: x36+x52 <=1 
C905: x36+x53 <=1 
C906: x36+x54 <=1 
C907: x36+x56-y36_56 <=1 
C908: x36+x57-y36_57 <=1 
C909: x36+x58-y36_58 <=1 
C910: x36+x59-y36_59 <=1 
C911: x37+x38 <=1 
C912: x37+x39 <=1 
C913: x37+x41-y37_41 <=1 
C914: x37+x45-y37_45 <=1 
C915: x37+x46 <=1 
C916: x37+x47-y37_47 <=1 
C917: x37+x48-y37_48 <=1 
C918: x37+x49-y37_49 <=1 
C919: x37+x51-y37_51 <=1 
C920: x37+x52-y37_52 <=1 
C921: x37+x53-y37_53 <=1 
C922: x37+x54 <=1 
C923: x37+x56 <=1 
C924: x37+x58 <=1 
C925: x38+x39 <=1 
C926: x38+x40 <=1 
C927: x38+x41-y38_41 <=1 
C928: x38+x43 <=1 
C929: x38+x45 <=1 
C930: x38+x46 <=1 
C931: x38+x47 <=1 
C932: x38+x49 <=1 
C933: x38+x52 <=1 
C934: x38+x53-y38_53 <=1 
C935: x38+x55 <=1 
C936: x38+x56-y38_56 <=1 
C937: x38+x58-y38_58 <=1 
C938: x38+x59-y38_59 <=1 
C939: x39+x42-y39_42 <=1 
C940: x39+x43 <=1 
C941: x39+x44-y39_44 <=1 
C942: x39+x46 <=1 
C943: x39+x48-y39_48 <=1 
C944: x39+x49-y39_49 <=1 
C945: x39+x51 <=1 
C946: x39+x52 <=1 
C947: x39+x53 <=1 
C948: x39+x54-y39_54 <=1 
C949: x39+x57-y39_57 <=1 
C950: x39+x58-y39_58 <=1 
C951: x40+x41 <=1 
C952: x40+x44-y40_44 <=1 
C953: x40+x45-y40_45 <=1 
C954: x40+x48-y40_48 <=1 
C955: x40+x51-y40_51 <=1 
C956: x40+x52-y40_52 <=1 
C957: x40+x54 <=1 
C958: x40+x57-y40_57 <=1 
C959: x40+x59-y40_59 <=1 
C960: x41+x43 <=1 
C961: x41+x44 <=1 
C962: x41+x45 <=1 
C963: x41+x48-y41_48 <=1 
C964: x41+x49 <=1 
C965: x41+x50 <=1 
C966: x41+x51 <=1 
C967: x41+x52 <=1 
C968: x41+x53 <=1 
C969: x41+x54 <=1 
C970: x41+x55 <=1 
C971: x41+x58-y41_58 <=1 
C972: x41+x59 <=1 
C973: x42+x44-y42_44 <=1 
C974: x42+x46 <=1 
C975: x42+x47 <=1 
C976: x42+x50 <=1 
C977: x42+x51-y42_51 <=1 
C978: x42+x53-y42_53 <=1 
C979: x42+x54-y42_54 <=1 
C980: x42+x55 <=1 
C981: x42+x56-y42_56 <=1 
C982: x42+x57-y42_57 <=1 
C983: x43+x44 <=1 
C984: x43+x47-y43_47 <=1 
C985: x43+x49 <=1 
C986: x43+x54 <=1 
C987: x43+x56-y43_56 <=1 
C988: x43+x59-y43_59 <=1 
C989: x44+x45-y44_45 <=1 
C990: x44+x47 <=1 
C991: x44+x48 <=1 
C992: x44+x49 <=1 
C993: x44+x50 <=1 
C994: x44+x52-y44_52 <=1 
C995: x44+x53-y44_53 <=1 
C996: x44+x56 <=1 
C997: x44+x58-y44_58 <=1 
C998: x44+x59 <=1 
C999: x45+x47-y45_47 <=1 
C1000: x45+x48 <=1 
C1001: x45+x49-y45_49 <=1 
C1002: x45+x56 <=1 
C1003: x45+x57 <=1 
C1004: x45+x59 <=1 
C1005: x46+x47 <=1 
C1006: x46+x48 <=1 
C1007: x46+x52 <=1 
C1008: x46+x54-y46_54 <=1 
C1009: x46+x55 <=1 
C1010: x46+x56 <=1 
C1011: x46+x58-y46_58 <=1 
C1012: x46+x59 <=1 
C1013: x47+x48-y47_48 <=1 
C1014: x47+x49 <=1 
C1015: x47+x50 <=1 
C1016: x47+x51 <=1 
C1017: x47+x52 <=1 
C1018: x47+x54-y47_54 <=1 
C1019: x47+x56-y47_56 <=1 
C1020: x47+x57 <=1 
C1021: x47+x58-y47_58 <=1 
C1022: x48+x49 <=1 
C1023: x48+x51-y48_51 <=1 
C1024: x48+x54 <=1 
C1025: x48+x56-y48_56 <=1 
C1026: x48+x59-y48_59 <=1 
C1027: x49+x50 <=1 
C1028: x49+x51-y49_51 <=1 
C1029: x49+x52-y49_52 <=1 
C1030: x49+x53 <=1 
C1031: x49+x54-y49_54 <=1 
C1032: x49+x55-y49_55 <=1 
C1033: x49+x56 <=1 
C1034: x49+x59 <=1 
C1035: x50+x51 <=1 
C1036: x50+x52-y50_52 <=1 
C1037: x50+x57 <=1 
C1038: x50+x58 <=1 
C1039: x50+x59-y50_59 <=1 
C1040: x51+x52 <=1 
C1041: x51+x54-y51_54 <=1 
C1042: x51+x55 <=1 
C1043: x51+x56 <=1 
C1044: x51+x59-y51_59 <=1 
C1045: x52+x53 <=1 
C1046: x52+x55 <=1 
C1047: x52+x56 <=1 
C1048: x52+x57 <=1 
C1049: x52+x58-y52_58 <=1 
C1050: x53+x54 <=1 
C1051: x53+x56 <=1 
C1052: x54+x55 <=1 
C1053: x54+x57 <=1 
C1054: x54+x59-y54_59 <=1 
C1055: x55+x56 <=1 
C1056: x55+x57 <=1 
C1057: x55+x58-y55_58 <=1 
C1058: x55+x59 <=1 
C1059: x56+x57 <=1 
C1060: x58+x59 <=1 

binary
x0
x1
x2
x3
x4
x5
x6
x7
x8
x9
x10
x11
x12
x13
x14
x15
x16
x17
x18
x19
x20
x21
x22
x23
x24
x25
x26
x27
x28
x29
x30
x31
x32
x33
x34
x35
x36
x37
x38
x39
x40
x41
x42
x43
x44
x45
x46
x47
x48
x49
x50
x51
x52
x53
x54
x55
x56
x57
x58
x59
