problem_generation/data/GISP/train/er_n=60_m=1060_p=0.60_SET2_setparam=100.00_alpha=0.50_176.sol
objective value:                                 1178
x0                                                  1 	(obj:100)
x5                                                  1 	(obj:100)
x9                                                  1 	(obj:100)
x10                                                 1 	(obj:100)
x17                                                 1 	(obj:100)
x19                                                 1 	(obj:100)
x22                                                 1 	(obj:100)
x35                                                 1 	(obj:100)
x37                                                 1 	(obj:100)
x44                                                 1 	(obj:100)
x45                                                 1 	(obj:100)
x52                                                 1 	(obj:100)
y0_9                                                1 	(obj:-1)
y10_22                                              1 	(obj:-1)
y10_35                                              1 	(obj:-1)
y10_44                                              1 	(obj:-1)
y9_52                                               1 	(obj:-1)
y35_45                                              1 	(obj:-1)
y9_10                                               1 	(obj:-1)
y9_19                                               1 	(obj:-1)
y0_37                                               1 	(obj:-1)
y0_45                                               1 	(obj:-1)
y0_22                                               1 	(obj:-1)
y19_35                                              1 	(obj:-1)
y37_52                                              1 	(obj:-1)
y44_45                                              1 	(obj:-1)
y10_52                                              1 	(obj:-1)
y22_44                                              1 	(obj:-1)
y9_37                                               1 	(obj:-1)
y9_35                                               1 	(obj:-1)
y19_52                                              1 	(obj:-1)
y0_52                                               1 	(obj:-1)
y37_45                                              1 	(obj:-1)
y44_52                                              1 	(obj:-1)
